p cnf 50 300
1 -50 -48 0
1 -50 -32 0
1 -50 -27 0
1 -50 -17 0
1 -50 38 0
1 -50 48 0
1 -49 -35 0
1 -49 -33 0
1 -49 -30 0
1 -49 -26 0
1 -49 -22 0
1 -49 7 0
1 -48 -28 0
1 -48 -14 0
1 -48 9 0
1 -48 33 0
1 -48 34 0
1 -47 -4 0
1 -47 8 0
1 -47 14 0
1 -47 27 0
1 -47 29 0
1 -47 41 0
1 -46 -36 0
1 -46 -15 0
1 -46 7 0
1 -46 10 0
1 -46 11 0
1 -46 27 0
1 -45 -31 0
1 -45 -7 0
1 -45 9 0
1 -45 14 0
1 -45 23 0
1 -45 46 0
1 -44 -22 0
1 -44 -6 0
1 -44 24 0
1 -44 35 0
1 -44 42 0
1 -44 45 0
1 -43 -41 0
1 -43 -15 0
1 -43 15 0
1 -43 18 0
1 -43 21 0
1 -43 28 0
1 -42 -41 0
1 -42 -40 0
1 -42 -37 0
1 -42 -21 0
1 -42 16 0
1 -42 26 0
1 -41 -35 0
1 -41 -21 0
1 -41 -15 0
1 -41 -6 0
1 -40 -27 0
1 -40 -5 0
1 -40 20 0
1 -40 31 0
1 -40 34 0
1 -39 -33 0
1 -39 -32 0
1 -39 -16 0
1 -39 -15 0
1 -39 6 0
1 -39 33 0
1 -38 -17 0
1 -38 8 0
1 -38 9 0
1 -38 12 0
1 -38 24 0
1 -38 35 0
1 -37 -24 0
1 -37 -23 0
1 -37 -12 0
1 -37 9 0
1 -37 34 0
1 -36 -14 0
1 -36 15 0
1 -36 16 0
1 -36 33 0
1 -36 45 0
1 -35 -34 0
1 -35 21 0
1 -35 24 0
1 -35 25 0
1 -34 -29 0
1 -34 8 0
1 -34 19 0
1 -34 35 0
1 -34 40 0
1 -33 -12 0
1 -33 -2 0
1 -33 24 0
1 -33 32 0
1 -32 3 0
1 -32 5 0
1 -32 30 0
1 -32 36 0
1 -31 -23 0
1 -31 -12 0
1 -31 6 0
1 -31 39 0
1 -31 40 0
1 -30 -13 0
1 -30 -9 0
1 -30 3 0
1 -30 13 0
1 -30 35 0
1 -29 -27 0
1 -29 1 0
1 -29 13 0
1 -29 34 0
1 -29 41 0
1 -28 -26 0
1 -28 -9 0
1 -28 -3 0
1 -28 41 0
1 -28 48 0
1 -27 -20 0
1 -27 -4 0
1 -27 41 0
1 -26 -14 0
1 -26 -7 0
1 -26 25 0
1 -26 47 0
1 -25 -20 0
1 -25 -14 0
1 -25 -12 0
1 -25 -2 0
1 -25 16 0
1 -25 27 0
1 -24 -18 0
1 -24 17 0
1 -24 20 0
1 -24 29 0
1 -24 44 0
1 -23 10 0
1 -23 19 0
1 -23 21 0
1 -23 31 0
1 -22 -21 0
1 -22 18 0
1 -22 27 0
1 -22 44 0
1 -21 -4 0
1 -21 29 0
1 -21 42 0
1 -20 -10 0
1 -20 -8 0
1 -20 5 0
1 -20 49 0
1 -19 -14 0
1 -19 -8 0
1 -19 2 0
1 -19 13 0
1 -19 27 0
1 -19 46 0
1 -18 -3 0
1 -18 12 0
1 -18 17 0
1 -18 31 0
1 -18 49 0
1 -17 -14 0
1 -17 -1 0
1 -17 25 0
1 -17 39 0
1 -16 -6 0
1 -16 19 0
1 -16 28 0
1 -16 41 0
1 -16 47 0
1 -15 43 0
1 -15 50 0
1 -13 -10 0
1 -13 7 0
1 -13 9 0
1 -13 15 0
1 -13 40 0
1 -12 14 0
1 -12 26 0
1 -11 -9 0
1 -11 -8 0
1 -11 -6 0
1 -11 -1 0
1 -11 18 0
1 -11 49 0
1 -10 4 0
1 -10 11 0
1 -10 15 0
1 -10 29 0
1 -9 5 0
1 -9 15 0
1 -9 28 0
1 -8 30 0
1 -8 33 0
1 -8 49 0
1 -7 -5 0
1 -7 2 0
1 -7 30 0
1 -7 36 0
1 -6 2 0
1 -6 25 0
1 -5 4 0
1 -5 9 0
1 -5 32 0
1 -5 50 0
1 -4 11 0
1 -4 30 0
1 -4 36 0
1 -3 10 0
1 -3 14 0
1 -3 32 0
1 -3 47 0
1 -2 1 0
1 -2 10 0
1 -2 19 0
1 -2 32 0
1 -1 25 0
1 -1 32 0
1 -1 45 0
1 -1 48 0
1 1 7 0
1 1 20 0
1 1 40 0
1 1 46 0
1 2 18 0
1 2 22 0
1 2 23 0
1 3 8 0
1 3 21 0
1 3 24 0
1 3 44 0
1 4 8 0
1 4 34 0
1 4 46 0
1 4 50 0
1 5 10 0
1 5 18 0
1 5 21 0
1 6 16 0
1 6 26 0
1 6 31 0
1 6 49 0
1 7 23 0
1 7 43 0
1 8 45 0
1 10 48 0
1 11 12 0
1 11 38 0
1 11 43 0
1 12 30 0
1 12 40 0
1 12 47 0
1 13 23 0
1 13 27 0
1 13 47 0
1 14 22 0
1 14 50 0
1 15 30 0
1 16 47 0
1 16 50 0
1 17 18 0
1 17 23 0
1 17 34 0
1 17 39 0
1 19 39 0
1 19 50 0
1 20 24 0
1 20 38 0
1 20 44 0
1 21 29 0
1 22 26 0
1 22 31 0
1 22 33 0
1 22 40 0
1 23 38 0
1 25 28 0
1 26 37 0
1 26 38 0
1 28 31 0
1 28 48 0
1 29 36 0
1 32 39 0
1 33 37 0
1 35 41 0
1 35 46 0
1 36 39 0
1 36 42 0
1 37 42 0
1 37 43 0
1 37 44 0
1 37 48 0
1 38 42 0
1 42 45 0
1 43 45 0
1 43 49 0
1 44 46 0
